SDVRP instances/custom_instances/p10_2_split0.vrp
NAME:p10_2_split
BEST_KNOWN: 0
COMMENT: 0
DIMENSION: 937
CAPACITY: 200
EDGE_WEIGHT_FORMAT: FUNCTION
EDGE_WEIGHT_TYPE: EXACT_2D
NODE_COORD_SECTION
1 0.00000 0.00000
2 28 -46
3 28 -46
4 28 -46
5 28 -46
6 28 -46
7 28 -46
8 11 -26
9 11 -26
10 11 -26
11 20 12
12 20 12
13 20 12
14 20 12
15 20 12
16 20 12
17 20 12
18 44 -40
19 44 -40
20 44 -40
21 44 -40
22 44 -40
23 -36 20
24 -36 20
25 -36 20
26 -36 20
27 -36 20
28 -40 28
29 -40 28
30 -40 28
31 -40 28
32 -40 28
33 -40 28
34 -40 28
35 -35 -1
36 -35 -1
37 -35 -1
38 -35 -1
39 -35 -1
40 -34 -10
41 -34 -10
42 -34 -10
43 -34 -10
44 -34 -10
45 -34 -10
46 -34 -10
47 15 25
48 15 25
49 15 25
50 15 25
51 15 25
52 50 14
53 50 14
54 50 14
55 50 14
56 50 14
57 50 14
58 50 14
59 21 -22
60 21 -22
61 21 -22
62 21 -22
63 21 -22
64 -38 42
65 -38 42
66 -38 42
67 -38 42
68 -38 42
69 -2 -37
70 -2 -37
71 -2 -37
72 -2 -37
73 -2 -37
74 -2 -37
75 21 7
76 21 7
77 21 7
78 47 -21
79 47 -21
80 47 -21
81 47 -21
82 47 -21
83 47 -21
84 47 -21
85 35 -6
86 35 -6
87 35 -6
88 35 -6
89 35 -6
90 35 -6
91 2 21
92 2 21
93 2 21
94 2 21
95 2 21
96 2 21
97 2 21
98 -3 -1
99 -3 -1
100 -3 -1
101 -3 -1
102 -3 -1
103 -3 -1
104 -3 -1
105 -3 -1
106 22 -37
107 22 -37
108 22 -37
109 22 -37
110 22 -37
111 -44 -1
112 -44 -1
113 -44 -1
114 -44 -1
115 5 18
116 5 18
117 5 18
118 33 16
119 33 16
120 33 16
121 33 16
122 33 16
123 33 16
124 -47 35
125 -47 35
126 -47 35
127 -49 14
128 -49 14
129 -49 14
130 -49 14
131 15 -48
132 15 -48
133 15 -48
134 15 -48
135 15 -48
136 15 -48
137 15 -48
138 0 43
139 0 43
140 0 43
141 0 43
142 -47 -32
143 -47 -32
144 -47 -32
145 -47 -32
146 -47 -32
147 -47 -32
148 -5 -2
149 -5 -2
150 -5 -2
151 30 -8
152 30 -8
153 30 -8
154 30 -8
155 40 37
156 40 37
157 44 3
158 44 3
159 44 3
160 -31 18
161 -31 18
162 -31 18
163 -31 18
164 -31 18
165 -29 23
166 -29 23
167 -29 23
168 -29 23
169 -29 23
170 -29 23
171 -29 23
172 -40 43
173 -40 43
174 -40 43
175 -40 43
176 -40 43
177 6 -19
178 6 -19
179 6 -19
180 6 -19
181 6 -19
182 6 -19
183 -20 34
184 -20 34
185 -20 34
186 -20 34
187 -20 34
188 -20 34
189 48 4
190 48 4
191 48 4
192 48 4
193 48 4
194 48 4
195 -2 2
196 -2 2
197 -2 2
198 -2 2
199 -2 2
200 -2 2
201 -2 2
202 10 16
203 10 16
204 10 16
205 4 14
206 4 14
207 4 14
208 4 14
209 -7 -37
210 -7 -37
211 -7 -37
212 -7 -37
213 -7 -37
214 -7 -37
215 -7 -37
216 48 -5
217 48 -5
218 48 -5
219 48 -5
220 48 -11
221 48 -11
222 -10 31
223 -10 31
224 -10 31
225 -10 31
226 -10 31
227 -10 31
228 35 45
229 35 45
230 35 45
231 35 45
232 -10 -7
233 -10 -7
234 -10 -7
235 -10 -7
236 -10 -7
237 -10 -7
238 42 43
239 42 43
240 42 43
241 42 43
242 42 43
243 24 -48
244 24 -48
245 24 -48
246 33 -5
247 33 -5
248 33 -5
249 33 -5
250 33 -5
251 33 -5
252 -3 -22
253 -3 -22
254 -3 -22
255 -3 -22
256 -3 -22
257 -10 34
258 -10 34
259 -10 34
260 -10 34
261 -10 34
262 -10 34
263 -10 34
264 40 -8
265 40 -8
266 40 -8
267 40 -8
268 40 -8
269 -5 27
270 -5 27
271 -5 27
272 -5 27
273 -35 12
274 -35 12
275 -35 12
276 -35 12
277 -30 -35
278 -30 -35
279 -30 -35
280 -30 -35
281 -11 43
282 -11 43
283 -11 43
284 2 44
285 2 44
286 2 44
287 2 44
288 2 44
289 30 -9
290 30 -9
291 30 -9
292 30 -9
293 30 -9
294 30 -9
295 25 -16
296 25 -16
297 25 -16
298 -35 -2
299 -35 -2
300 -35 -2
301 -35 -2
302 37 32
303 37 32
304 37 32
305 37 32
306 37 32
307 37 32
308 -15 -42
309 -15 -42
310 -15 -42
311 -15 -42
312 -13 12
313 -13 12
314 -13 12
315 0 -16
316 0 -16
317 0 -16
318 0 -16
319 0 -16
320 0 -16
321 -47 -30
322 -47 -30
323 -47 -30
324 -47 -30
325 -47 -30
326 -33 -14
327 -33 -14
328 -33 -14
329 -36 -28
330 -36 -28
331 -36 -28
332 -36 -28
333 -36 -28
334 -3 -21
335 -3 -21
336 -3 -21
337 -3 -21
338 21 47
339 21 47
340 21 47
341 23 -2
342 23 -2
343 23 -2
344 23 -2
345 23 -2
346 23 -2
347 23 -2
348 -42 -7
349 -42 -7
350 -42 -7
351 -42 -7
352 -42 -7
353 -42 -7
354 -13 33
355 -13 33
356 -13 33
357 -13 33
358 33 -37
359 33 -37
360 33 -37
361 0 46
362 0 46
363 0 46
364 0 46
365 5 -24
366 5 -24
367 5 -24
368 5 -24
369 5 -24
370 -1 21
371 -1 21
372 -1 21
373 -1 21
374 -1 21
375 -1 21
376 -49 14
377 -49 14
378 -37 4
379 -37 4
380 -37 4
381 -37 4
382 -45 29
383 -45 29
384 -45 29
385 42 25
386 42 25
387 42 25
388 8 -50
389 8 -50
390 8 -50
391 8 -50
392 8 -50
393 -25 5
394 -25 5
395 -25 5
396 -25 5
397 -25 5
398 -25 5
399 -25 5
400 13 8
401 13 8
402 13 8
403 -1 -23
404 -1 -23
405 -1 -23
406 -1 -23
407 -5 -40
408 -5 -40
409 -5 -40
410 -5 -40
411 -5 -40
412 -5 -40
413 -5 -40
414 13 43
415 13 43
416 13 43
417 43 30
418 43 30
419 43 30
420 -48 23
421 -48 23
422 -48 23
423 -48 23
424 -48 23
425 -1 -2
426 -1 -2
427 -46 -12
428 -46 -12
429 -46 -12
430 -46 -12
431 -46 -12
432 -46 -12
433 -46 -12
434 49 7
435 49 7
436 49 7
437 49 7
438 28 28
439 28 28
440 28 28
441 28 28
442 28 28
443 28 28
444 28 28
445 28 28
446 -42 32
447 -42 32
448 -42 32
449 -42 32
450 31 -45
451 31 -45
452 31 -45
453 31 -45
454 32 -10
455 32 -10
456 32 -10
457 32 -10
458 32 -10
459 32 -10
460 -5 41
461 -5 41
462 -5 41
463 -5 41
464 -5 41
465 8 2
466 8 2
467 8 2
468 8 2
469 40 3
470 40 3
471 40 3
472 40 3
473 40 3
474 40 3
475 -44 -26
476 -44 -26
477 -44 -26
478 9 -44
479 9 -44
480 9 -44
481 9 -44
482 -29 -19
483 -2 -43
484 -2 -43
485 -2 -43
486 -39 9
487 -39 9
488 -31 -3
489 -31 -3
490 -31 -3
491 -44 43
492 -44 43
493 -44 43
494 -44 43
495 -44 43
496 -44 43
497 -41 -21
498 -41 -21
499 -41 -21
500 -41 -21
501 1 47
502 1 47
503 1 47
504 1 47
505 1 47
506 -36 -39
507 -36 -39
508 -36 -39
509 -26 36
510 -26 36
511 -26 36
512 -23 6
513 -23 6
514 -23 6
515 -23 6
516 -23 6
517 -23 6
518 -19 -16
519 -19 -16
520 -19 -16
521 -19 -16
522 -19 -16
523 -19 -16
524 -19 -16
525 -7 12
526 -7 12
527 -7 12
528 19 21
529 19 21
530 19 21
531 19 21
532 19 21
533 19 21
534 10 -10
535 10 -10
536 10 -10
537 10 -10
538 10 -10
539 -29 25
540 -29 25
541 -29 25
542 -29 25
543 -29 25
544 42 -11
545 42 -11
546 42 -11
547 42 -11
548 42 -11
549 24 -48
550 24 -48
551 24 -48
552 24 -48
553 24 -48
554 40 -36
555 40 -36
556 40 -36
557 40 -36
558 14 -4
559 14 -4
560 14 -4
561 14 -4
562 14 -4
563 14 -4
564 14 -4
565 -50 11
566 -50 11
567 -50 11
568 -50 11
569 -50 11
570 -50 11
571 -27 -41
572 -27 -41
573 -27 -41
574 -27 -41
575 22 46
576 22 46
577 49 -37
578 49 -37
579 49 -37
580 49 -37
581 49 -37
582 49 -37
583 49 -37
584 28 -17
585 28 -17
586 28 -17
587 28 -17
588 28 -17
589 -28 -10
590 -28 -10
591 -28 -10
592 -28 -10
593 -28 -10
594 -28 -10
595 -40 4
596 -40 4
597 -40 4
598 -40 4
599 -40 4
600 -40 4
601 -3 -32
602 -3 -32
603 -3 -32
604 -3 -32
605 -3 -32
606 -35 21
607 -35 21
608 -35 21
609 -35 21
610 -35 21
611 -1 21
612 -1 21
613 -1 21
614 -1 21
615 -1 21
616 -43 -50
617 -43 -50
618 -43 -50
619 -46 6
620 -46 6
621 -46 6
622 -46 6
623 22 -4
624 22 -4
625 22 -4
626 12 -11
627 12 -11
628 12 -11
629 12 -11
630 12 -11
631 13 9
632 13 9
633 13 9
634 13 9
635 13 9
636 -44 -5
637 -44 -5
638 -44 -5
639 -44 -5
640 4 14
641 4 14
642 4 14
643 4 14
644 4 14
645 4 14
646 4 14
647 44 -36
648 44 -36
649 44 -36
650 44 -36
651 44 -36
652 44 -36
653 44 -36
654 48 44
655 48 44
656 48 44
657 48 44
658 48 44
659 48 44
660 -30 -40
661 -30 -40
662 -30 -40
663 -30 -40
664 -30 -40
665 0 -48
666 -45 -28
667 -45 -28
668 -45 -28
669 -45 -28
670 -25 9
671 -25 9
672 -25 9
673 6 -38
674 6 -38
675 6 -38
676 6 -38
677 6 -38
678 -25 -9
679 -25 -9
680 -25 -9
681 -25 -9
682 -25 -9
683 -25 -9
684 35 -9
685 35 -9
686 35 -9
687 35 -9
688 35 -9
689 37 29
690 37 29
691 37 29
692 37 29
693 4 3
694 4 3
695 4 3
696 4 3
697 -34 -16
698 -34 -16
699 -34 -16
700 -34 -16
701 -34 -16
702 -34 -16
703 -18 24
704 -18 24
705 -18 24
706 -18 24
707 47 7
708 47 7
709 47 7
710 42 -29
711 42 -29
712 42 -29
713 42 -29
714 42 -29
715 42 -29
716 4 -28
717 4 -28
718 4 -28
719 4 -28
720 4 -28
721 4 -28
722 31 -37
723 31 -37
724 11 23
725 11 23
726 11 23
727 11 23
728 11 23
729 45 -46
730 45 -46
731 45 -46
732 -2 4
733 -2 4
734 -2 4
735 -2 4
736 -2 4
737 -2 4
738 -28 -17
739 -28 -17
740 -28 -17
741 -28 -17
742 -28 -17
743 -28 -17
744 -36 -18
745 -36 -18
746 -36 -18
747 -36 -18
748 -23 -13
749 -23 -13
750 -23 -13
751 -23 -13
752 -23 -13
753 46 20
754 46 20
755 46 20
756 46 20
757 46 20
758 46 20
759 46 20
760 -33 3
761 -33 3
762 -33 3
763 -33 3
764 -33 3
765 -33 3
766 -33 3
767 -19 10
768 -19 10
769 -19 10
770 -19 10
771 -19 10
772 -19 10
773 -19 10
774 -28 -42
775 -14 28
776 -14 28
777 -14 28
778 30 24
779 30 24
780 30 24
781 -24 32
782 -24 32
783 -24 32
784 -24 32
785 -24 32
786 27 -38
787 27 -38
788 27 -38
789 27 -38
790 33 12
791 33 12
792 33 12
793 33 12
794 33 12
795 13 -24
796 13 -24
797 13 -24
798 13 -24
799 13 -24
800 -25 1
801 -25 1
802 -25 1
803 -25 1
804 -25 1
805 -25 1
806 32 47
807 32 47
808 32 47
809 17 19
810 17 19
811 17 19
812 17 19
813 -49 -37
814 -49 -37
815 -49 -37
816 -49 -37
817 36 2
818 36 2
819 36 2
820 36 2
821 4 43
822 4 43
823 4 43
824 4 43
825 4 43
826 4 43
827 -31 29
828 -31 29
829 15 47
830 15 47
831 15 47
832 15 47
833 39 -29
834 39 -29
835 39 -29
836 39 -29
837 39 -29
838 10 46
839 10 46
840 10 46
841 10 46
842 10 46
843 10 46
844 10 46
845 10 46
846 18 20
847 18 20
848 18 20
849 18 20
850 43 -49
851 43 -49
852 43 -49
853 43 -49
854 43 -49
855 -19 22
856 -19 22
857 -19 22
858 -19 22
859 -19 22
860 8 5
861 8 5
862 8 5
863 -12 -25
864 -12 -25
865 -42 -33
866 -42 -33
867 -42 -33
868 -42 -33
869 -42 -33
870 -42 -33
871 -42 -33
872 -42 -33
873 -30 -33
874 -30 -33
875 -30 -33
876 -30 -33
877 -30 -33
878 -30 -33
879 -30 -33
880 36 32
881 36 32
882 36 32
883 36 32
884 36 32
885 36 32
886 36 32
887 36 32
888 50 8
889 50 8
890 50 8
891 50 8
892 50 8
893 -36 19
894 -36 19
895 -36 19
896 -36 19
897 -36 19
898 -36 19
899 -27 -6
900 -27 -6
901 -27 -6
902 -27 -6
903 1 30
904 1 30
905 1 30
906 1 30
907 1 30
908 14 0
909 18 19
910 18 19
911 -47 -46
912 -47 -46
913 -47 -46
914 37 -26
915 37 -26
916 37 -26
917 37 -26
918 37 -26
919 10 24
920 10 24
921 10 24
922 10 24
923 25 -38
924 25 -38
925 25 -38
926 25 -38
927 25 -38
928 44 20
929 44 20
930 44 20
931 44 20
932 -10 -3
933 -10 -3
934 -10 -3
935 -10 -3
936 -10 -3
937 -10 -3
DEMAND_SECTION
1 0
2 40
3 40
4 10
5 2
6 2
7 2
8 20
9 10
10 1
11 40
12 20
13 2
14 2
15 2
16 2
17 1
18 20
19 10
20 2
21 2
22 1
23 20
24 2
25 2
26 2
27 2
28 40
29 20
30 2
31 2
32 2
33 2
34 1
35 40
36 2
37 2
38 2
39 1
40 40
41 20
42 10
43 2
44 2
45 2
46 1
47 20
48 10
49 2
50 2
51 1
52 40
53 40
54 2
55 2
56 2
57 2
58 1
59 40
60 40
61 2
62 2
63 1
64 20
65 10
66 2
67 2
68 2
69 40
70 10
71 2
72 2
73 2
74 2
75 40
76 20
77 2
78 40
79 20
80 10
81 2
82 2
83 2
84 1
85 40
86 2
87 2
88 2
89 2
90 1
91 40
92 40
93 2
94 2
95 2
96 2
97 1
98 40
99 40
100 10
101 2
102 2
103 2
104 2
105 1
106 40
107 20
108 10
109 2
110 1
111 20
112 2
113 2
114 2
115 40
116 20
117 10
118 20
119 10
120 2
121 2
122 2
123 1
124 40
125 40
126 20
127 20
128 10
129 2
130 2
131 40
132 40
133 2
134 2
135 2
136 2
137 1
138 40
139 20
140 2
141 1
142 20
143 10
144 2
145 2
146 2
147 1
148 40
149 40
150 2
151 40
152 20
153 2
154 1
155 40
156 2
157 40
158 10
159 2
160 40
161 2
162 2
163 2
164 1
165 40
166 40
167 2
168 2
169 2
170 2
171 1
172 40
173 40
174 10
175 2
176 2
177 20
178 10
179 2
180 2
181 2
182 1
183 40
184 20
185 10
186 2
187 2
188 1
189 40
190 40
191 10
192 2
193 2
194 1
195 40
196 20
197 2
198 2
199 2
200 2
201 1
202 40
203 20
204 1
205 40
206 40
207 2
208 1
209 40
210 40
211 10
212 2
213 2
214 2
215 1
216 40
217 10
218 2
219 1
220 20
221 10
222 40
223 20
224 2
225 2
226 2
227 2
228 40
229 40
230 10
231 1
232 40
233 20
234 2
235 2
236 2
237 1
238 40
239 10
240 2
241 2
242 1
243 40
244 40
245 10
246 40
247 40
248 10
249 2
250 2
251 2
252 40
253 40
254 10
255 2
256 2
257 40
258 40
259 2
260 2
261 2
262 2
263 1
264 40
265 40
266 10
267 2
268 1
269 40
270 10
271 2
272 2
273 20
274 2
275 2
276 2
277 40
278 40
279 2
280 1
281 40
282 20
283 1
284 40
285 20
286 2
287 2
288 2
289 40
290 20
291 2
292 2
293 2
294 2
295 40
296 20
297 1
298 20
299 2
300 2
301 2
302 40
303 20
304 10
305 2
306 2
307 2
308 40
309 40
310 10
311 1
312 40
313 2
314 2
315 20
316 2
317 2
318 2
319 2
320 1
321 40
322 2
323 2
324 2
325 2
326 20
327 10
328 2
329 20
330 2
331 2
332 2
333 1
334 40
335 40
336 10
337 2
338 40
339 20
340 10
341 40
342 40
343 10
344 2
345 2
346 2
347 1
348 40
349 40
350 10
351 2
352 2
353 1
354 40
355 20
356 2
357 1
358 40
359 20
360 2
361 40
362 40
363 2
364 1
365 40
366 2
367 2
368 2
369 1
370 40
371 40
372 10
373 2
374 2
375 1
376 40
377 1
378 40
379 2
380 2
381 2
382 40
383 2
384 1
385 40
386 2
387 1
388 40
389 20
390 2
391 2
392 2
393 40
394 10
395 2
396 2
397 2
398 2
399 1
400 40
401 20
402 10
403 40
404 2
405 2
406 2
407 40
408 10
409 2
410 2
411 2
412 2
413 1
414 40
415 40
416 10
417 40
418 20
419 10
420 20
421 2
422 2
423 2
424 1
425 40
426 40
427 40
428 10
429 2
430 2
431 2
432 2
433 1
434 20
435 2
436 2
437 1
438 40
439 40
440 10
441 2
442 2
443 2
444 2
445 1
446 40
447 20
448 10
449 1
450 20
451 2
452 2
453 1
454 40
455 10
456 2
457 2
458 2
459 1
460 40
461 10
462 2
463 2
464 1
465 20
466 10
467 2
468 2
469 20
470 10
471 2
472 2
473 2
474 2
475 40
476 40
477 2
478 20
479 10
480 2
481 1
482 40
483 20
484 10
485 1
486 40
487 10
488 40
489 20
490 2
491 20
492 10
493 2
494 2
495 2
496 2
497 20
498 2
499 2
500 2
501 40
502 20
503 2
504 2
505 1
506 40
507 2
508 1
509 40
510 2
511 2
512 20
513 2
514 2
515 2
516 2
517 1
518 40
519 10
520 2
521 2
522 2
523 2
524 1
525 40
526 20
527 2
528 40
529 2
530 2
531 2
532 2
533 1
534 40
535 2
536 2
537 2
538 1
539 40
540 2
541 2
542 2
543 1
544 20
545 10
546 2
547 2
548 1
549 40
550 10
551 2
552 2
553 2
554 40
555 10
556 2
557 2
558 40
559 40
560 2
561 2
562 2
563 2
564 1
565 40
566 40
567 10
568 2
569 2
570 2
571 40
572 2
573 2
574 1
575 20
576 10
577 40
578 20
579 10
580 2
581 2
582 2
583 2
584 40
585 40
586 2
587 2
588 2
589 20
590 10
591 2
592 2
593 2
594 2
595 40
596 20
597 10
598 2
599 2
600 2
601 20
602 2
603 2
604 2
605 2
606 40
607 2
608 2
609 2
610 2
611 20
612 10
613 2
614 2
615 2
616 40
617 10
618 2
619 40
620 40
621 2
622 1
623 40
624 40
625 1
626 20
627 10
628 2
629 2
630 2
631 20
632 2
633 2
634 2
635 2
636 40
637 20
638 10
639 1
640 40
641 10
642 2
643 2
644 2
645 2
646 1
647 20
648 10
649 2
650 2
651 2
652 2
653 1
654 20
655 10
656 2
657 2
658 2
659 2
660 40
661 10
662 2
663 2
664 1
665 40
666 40
667 2
668 2
669 2
670 20
671 10
672 2
673 40
674 20
675 10
676 2
677 2
678 40
679 40
680 2
681 2
682 2
683 1
684 40
685 20
686 10
687 2
688 2
689 40
690 20
691 10
692 1
693 40
694 2
695 2
696 2
697 40
698 40
699 10
700 2
701 2
702 2
703 40
704 20
705 2
706 2
707 40
708 2
709 2
710 40
711 20
712 2
713 2
714 2
715 2
716 40
717 20
718 2
719 2
720 2
721 1
722 40
723 40
724 40
725 20
726 2
727 2
728 2
729 40
730 40
731 1
732 20
733 2
734 2
735 2
736 2
737 1
738 40
739 40
740 10
741 2
742 2
743 1
744 40
745 40
746 10
747 1
748 40
749 20
750 2
751 2
752 1
753 40
754 40
755 10
756 2
757 2
758 2
759 1
760 40
761 40
762 10
763 2
764 2
765 2
766 1
767 40
768 40
769 2
770 2
771 2
772 2
773 1
774 40
775 20
776 10
777 2
778 40
779 2
780 1
781 40
782 20
783 2
784 2
785 2
786 40
787 40
788 2
789 2
790 40
791 2
792 2
793 2
794 2
795 40
796 2
797 2
798 2
799 2
800 40
801 40
802 10
803 2
804 2
805 1
806 40
807 40
808 20
809 40
810 20
811 10
812 1
813 40
814 2
815 2
816 2
817 20
818 2
819 2
820 1
821 40
822 40
823 10
824 2
825 2
826 1
827 20
828 10
829 40
830 20
831 10
832 2
833 40
834 40
835 2
836 2
837 1
838 40
839 40
840 10
841 2
842 2
843 2
844 2
845 1
846 40
847 40
848 2
849 1
850 40
851 20
852 2
853 2
854 2
855 20
856 2
857 2
858 2
859 1
860 40
861 40
862 1
863 40
864 2
865 40
866 40
867 10
868 2
869 2
870 2
871 2
872 1
873 40
874 20
875 2
876 2
877 2
878 2
879 1
880 40
881 20
882 10
883 2
884 2
885 2
886 2
887 1
888 40
889 40
890 2
891 2
892 1
893 20
894 10
895 2
896 2
897 2
898 2
899 40
900 40
901 2
902 2
903 40
904 40
905 10
906 2
907 2
908 40
909 40
910 20
911 40
912 2
913 2
914 40
915 20
916 10
917 2
918 1
919 40
920 40
921 2
922 2
923 40
924 20
925 2
926 2
927 2
928 20
929 10
930 2
931 2
932 40
933 10
934 2
935 2
936 2
937 2
DEPOT_SECTION
1
-1
EOF