SDVRP instances/custom_instances/p10_2_split0.sol
936 -47 48 49 50 46 723 726 724 725 727 918 921 919 920 -60 61 62 359 358 357 722 721 786 788 -67 66 65 64 63 171 175 173 174 172 490 494 493 495 492 491 827 826 -88 84 89 85 86 87 248 245 250 247 249 246 340 345 343 346 342 -103 98 102 100 101 99 97 104 147 148 149 -105 109 106 132 133 131 130 134 135 136 480 479 477 478 675 674 676 -107 108 6 1 3 4 2 5 449 450 451 452 785 787 923 924 -119 121 118 385 384 386 418 416 417 689 688 691 690 -140 363 360 361 362 504 500 503 502 501 822 821 -142 812 814 813 815 911 910 912 617 616 615 505 507 506 878 875 874 -158 157 52 53 57 55 56 757 755 756 752 758 753 754 927 930 928 929 120 122 631 633 -159 160 161 609 607 608 605 606 24 25 23 22 26 897 895 892 894 896 893 670 671 669 514 512 515 513 -162 163 29 28 33 31 124 125 123 448 445 447 446 -169 164 168 165 166 170 167 538 539 541 705 704 702 703 -178 179 181 8 9 7 798 797 795 796 794 59 58 625 629 628 627 626 -180 176 177 367 368 365 364 366 717 716 719 720 718 715 402 403 405 404 319 318 316 315 -186 185 182 187 184 183 509 510 508 783 784 782 780 781 -200 199 197 198 196 195 194 425 424 -203 201 202 639 204 640 643 207 206 644 641 205 -214 210 208 407 410 412 411 409 408 406 70 72 73 71 69 68 600 603 604 -216 218 215 217 219 220 78 83 82 81 79 77 80 545 544 543 547 546 266 267 -224 222 223 225 226 221 261 262 258 259 257 270 268 369 -228 230 229 239 237 238 241 240 656 655 653 654 658 657 154 155 886 885 -233 231 235 236 234 232 517 521 751 750 679 681 682 678 677 680 -253 255 254 601 602 213 212 211 209 310 309 308 307 863 862 -260 256 282 281 280 355 354 356 353 774 776 775 -271 269 904 906 905 902 903 373 371 613 610 612 611 370 614 372 374 -274 272 273 275 129 126 127 375 376 128 568 569 566 567 564 565 620 -283 285 286 287 284 138 139 137 459 462 461 460 463 -291 288 289 293 290 292 455 453 457 456 152 150 341 344 -304 305 303 306 302 301 884 879 882 883 881 880 439 442 444 441 811 810 809 -314 317 252 251 335 333 334 336 -320 321 322 323 324 145 144 143 146 141 871 866 870 868 869 865 867 864 331 329 332 518 520 519 523 522 -326 325 327 499 496 498 497 476 474 475 666 667 665 668 698 699 -350 348 347 352 349 351 427 429 428 426 432 430 431 43 593 588 589 590 591 592 936 934 935 -379 377 378 380 594 598 599 596 762 759 765 760 761 764 763 -395 394 397 485 486 420 421 423 422 419 381 382 383 27 30 32 542 540 854 855 857 858 856 -396 392 393 398 800 799 802 803 801 804 932 933 931 -414 828 829 831 830 338 339 337 575 -415 413 843 837 838 839 842 840 841 844 823 820 824 825 -454 458 686 687 684 685 683 264 263 265 153 151 561 -465 466 464 623 624 622 558 560 559 563 562 557 -467 54 51 891 888 890 887 889 434 435 436 433 708 707 706 -471 468 469 473 470 472 188 191 189 190 192 193 156 818 816 817 819 -481 739 740 741 738 742 737 748 749 747 -483 484 482 664 390 387 389 388 391 673 672 -511 516 36 37 38 35 34 297 298 300 299 489 487 488 900 901 898 -525 524 526 313 311 312 772 771 769 768 770 767 766 -536 534 537 535 533 296 295 294 587 584 583 585 586 -549 242 548 550 552 551 244 243 925 926 922 -553 646 650 651 649 652 648 647 577 581 579 580 582 576 578 913 916 -554 556 555 17 20 19 21 18 728 729 730 851 853 849 850 852 -573 571 570 572 773 659 660 661 662 663 873 872 -574 805 807 806 227 808 -597 595 621 618 619 112 110 113 111 636 638 637 635 -632 630 634 15 13 12 16 11 14 10 74 76 75 907 -645 642 114 115 116 94 91 93 96 92 95 90 731 732 736 734 735 733 -694 693 695 692 399 400 401 860 859 861 -700 697 696 701 44 40 41 42 39 45 899 -746 743 744 745 330 328 279 278 277 276 876 877 -790 791 789 793 792 117 777 778 779 438 437 443 440 848 847 -835 834 832 833 836 710 714 713 709 711 712 914 915 917 -846 845 527 529 530 531 528 532 909 908 0 





OBJ=
5481.777
BEST_KNOWN=
0.000